3 
4  34 54 
5  15 28 45 
6  01 17 32 47 
7  02 17 32 47 
8  02 17 32 47 
9  03 18 33 48 
10  03 17 32 47 
11  02 17 32 47 
12  02 17 32 47 
13  02 17 32 47 
14  02 17 32 47 
15  02 17 32 47 
16  02 17 32 47 
17  02 17 32 47 
18  02 17 32 47 
19  02 17 32 47 
20  05 20 35 49 
21  05 20 35 50 
22  05 20 34 52 
23 
0 
